20 380
0 1 25.4
0 2 36.1
0 3 43.8
0 4 45.0
0 5 49.9
0 6 23.0
0 7 36.7
0 8 29.3
0 9 35.4
0 10 51.4
0 11 12.6
0 12 46.5
0 13 49.6
0 14 52.1
0 15 4.0
0 16 52.6
0 17 48.0
0 18 28.8
0 19 37.5
1 2 47.5
1 3 63.8
1 4 63.2
1 5 73.6
1 6 22.1
1 7 62.1
1 8 10.3
1 9 48.8
1 10 76.1
1 11 20.5
1 12 70.4
1 13 62.5
1 14 69.4
1 15 24.2
1 16 77.4
1 17 63.2
1 18 37.0
1 19 61.6
2 3 71.7
2 4 75.0
2 5 69.2
2 6 57.6
2 7 49.3
2 8 56.7
2 9 3.9
2 10 48.6
2 11 47.6
2 12 65.5
2 13 83.2
2 14 24.2
2 15 40.0
2 16 50.3
2 17 16.5
2 18 10.7
2 19 58.1
3 4 5.8
3 5 18.5
3 6 45.3
3 7 29.8
3 8 61.2
3 9 69.2
3 10 50.0
3 11 43.3
3 12 18.4
3 13 20.5
3 14 75.4
3 15 42.2
3 16 49.9
3 17 76.0
3 18 68.7
3 19 17.5
4 5 24.1
4 6 43.6
4 7 35.2
4 8 59.8
4 9 72.7
4 10 55.7
4 11 42.9
4 12 24.2
4 13 14.7
4 14 80.1
4 15 43.0
4 16 55.6
4 17 80.2
4 18 71.3
4 19 23.0
5 6 58.5
5 7 20.3
5 8 73.3
5 9 66.0
5 10 35.8
5 11 53.8
5 12 3.7
5 13 38.7
5 14 66.9
5 15 49.8
5 16 35.3
5 17 69.4
5 18 69.0
5 19 12.4
6 7 52.5
6 8 16.3
6 9 57.6
6 10 70.9
6 11 10.4
6 12 56.0
6 13 40.8
6 14 75.1
6 15 19.2
6 16 71.9
6 17 70.7
6 18 48.7
6 19 48.0
7 8 64.4
7 9 46.0
7 10 21.3
7 11 44.7
7 12 16.8
7 13 48.7
7 14 47.1
7 15 38.1
7 16 21.6
7 17 49.1
7 18 50.2
7 19 12.3
8 9 57.7
8 10 80.5
8 11 19.9
8 12 70.5
8 13 56.8
8 14 77.7
8 15 26.7
8 16 81.8
8 17 71.9
8 18 46.4
8 19 61.9
9 10 44.7
9 11 47.4
9 12 62.3
9 13 81.4
9 14 21.4
9 15 39.4
9 16 46.4
9 17 14.4
9 18 12.9
9 19 55.2
10 11 61.8
10 12 33.4
10 13 69.6
10 14 35.9
10 15 53.9
10 16 1.7
10 17 41.3
10 18 53.7
10 19 32.8
11 12 50.8
11 13 43.7
11 14 64.7
11 15 8.8
11 16 62.9
11 17 60.4
11 18 39.2
11 19 42.2
12 13 38.9
12 14 63.7
12 15 46.5
12 16 33.0
12 17 66.0
12 18 65.3
12 19 9.0
13 14 91.4
13 15 46.7
13 16 69.7
13 17 90.6
13 18 77.9
13 19 36.9
14 15 56.0
14 16 37.4
14 17 8.3
14 18 34.3
14 19 58.8
15 16 55.1
15 17 52.0
15 18 32.5
15 19 37.6
16 17 42.9
16 18 55.4
16 19 32.8
17 18 27.0
17 19 60.2
18 19 57.1
